
Gurobi 11.0.1 (win64) logging started Thu Mar 14 08:02:03 2024

Set parameter LogFile to value "C:\Projetos\Job_Rotation_Algorithms\Outputs\GurobiLogs\gurobi_log-output-39_ros-c23-BorbaRittModel-NoExtraConstraint-2.log"
Gurobi Optimizer version 11.0.1 build v11.0.1rc0 (win64 - Windows 10.0 (19045.2))

CPU model: 11th Gen Intel(R) Core(TM) i7-1165G7 @ 2.80GHz, instruction set [SSE2|AVX|AVX2|AVX512]
Thread count: 4 physical cores, 8 logical processors, using up to 1 threads


Gurobi 11.0.1 (win64) logging started Fri Mar 15 00:39:29 2024

Set parameter LogFile to value "C:\Projetos\Job_Rotation_Algorithms\Outputs\GurobiLogs\gurobi_log-output-39_ros-c23-BorbaRittModel-NoExtraConstraint-2.log"
Gurobi Optimizer version 11.0.1 build v11.0.1rc0 (win64 - Windows 10.0 (19045.2))

CPU model: 11th Gen Intel(R) Core(TM) i7-1165G7 @ 2.80GHz, instruction set [SSE2|AVX|AVX2|AVX512]
Thread count: 4 physical cores, 8 logical processors, using up to 1 threads


Gurobi 11.0.1 (win64) logging started Sat Mar 16 12:25:49 2024

Set parameter LogFile to value "C:\Projetos\Job_Rotation_Algorithms\Outputs\GurobiLogs\gurobi_log-output-39_ros-c23-BorbaRittModel-NoExtraConstraint-2.log"
Gurobi Optimizer version 11.0.1 build v11.0.1rc0 (win64 - Windows 10.0 (19045.2))

CPU model: 11th Gen Intel(R) Core(TM) i7-1165G7 @ 2.80GHz, instruction set [SSE2|AVX|AVX2|AVX512]
Thread count: 4 physical cores, 8 logical processors, using up to 1 threads


Gurobi 11.0.1 (win64) logging started Sat Mar 16 22:31:39 2024

Set parameter LogFile to value "C:\Projetos\Job_Rotation_Algorithms\Outputs\GurobiLogs\gurobi_log-output-39_ros-c23-BorbaRittModel-NoExtraConstraint-2.log"
Gurobi Optimizer version 11.0.1 build v11.0.1rc0 (win64 - Windows 10.0 (19045.2))

CPU model: 11th Gen Intel(R) Core(TM) i7-1165G7 @ 2.80GHz, instruction set [SSE2|AVX|AVX2|AVX512]
Thread count: 4 physical cores, 8 logical processors, using up to 1 threads

WLS license 901039 - registered to Bitka Analytics
Optimize a model with 750 rows, 281 columns and 2411 nonzeros
Model fingerprint: 0xefcf5270
Variable types: 2 continuous, 279 integer (279 binary)
Coefficient statistics:
  Matrix range     [1e+00, 2e+01]
  Objective range  [1e+00, 1e+00]
  Bounds range     [1e+00, 5e+01]
  RHS range        [1e+00, 5e+01]
Presolve removed 7 rows and 7 columns
Presolve time: 0.00s
Presolved: 743 rows, 274 columns, 2397 nonzeros
Variable types: 0 continuous, 274 integer (273 binary)

Root relaxation: objective 5.000000e+01, 539 iterations, 0.02 seconds (0.01 work units)

    Nodes    |    Current Node    |     Objective Bounds      |     Work
 Expl Unexpl |  Obj  Depth IntInf | Incumbent    BestBd   Gap | It/Node Time

     0     0   50.00000    0  100          -   50.00000      -     -    0s
     0     0   50.00000    0  117          -   50.00000      -     -    0s
     0     0   50.00000    0  117          -   50.00000      -     -    0s
     0     0   50.00000    0  113          -   50.00000      -     -    0s
     0     0   50.00000    0  113          -   50.00000      -     -    0s
     0     0   50.00000    0  115          -   50.00000      -     -    0s
     0     0   50.00000    0  107          -   50.00000      -     -    0s
     0     0   50.00000    0  104          -   50.00000      -     -    0s
     0     0   50.00000    0  118          -   50.00000      -     -    0s
     0     0   50.00000    0  116          -   50.00000      -     -    0s
     0     0   50.00000    0  119          -   50.00000      -     -    0s
     0     0   50.00000    0  111          -   50.00000      -     -    0s
H    0     0                      36.0000000   50.00000  38.9%     -    0s
     0     2   50.00000    0  111   36.00000   50.00000  38.9%     -    0s
H   26    24                      37.0000000   50.00000  35.1%  62.4    0s
H   81    62                      38.0000000   50.00000  31.6%  49.0    0s
H  315   190                      39.0000000   50.00000  28.2%  36.8    0s
H 1444   306                      41.0000000   50.00000  22.0%  60.7    4s
  1840   213   50.00000   17  112   41.00000   50.00000  22.0%  63.3    5s

Cutting planes:
  Flow cover: 3
  Zero half: 2
  RLT: 2

Explored 3039 nodes (174697 simplex iterations) in 7.37 seconds (7.49 work units)
Thread count was 1 (of 8 available processors)

Solution count 5: 41 39 38 ... 36

Optimal solution found (tolerance 1.00e-03)
Best objective 4.100000000000e+01, best bound 4.100000000000e+01, gap 0.0000%
